8348
44, 16, 50, 20, 23, 30, 29, 47, 26, 14, 52, 13, 27, 28, 12, 51, 11, 33, 43, 10, 9, 8, 19, 41, 45, 3, 17, 2, 7, 42, 21, 31, 18, 22, 1, 32, 49, 35, 34, 36, 39, 37, 40, 38, 48, 24, 5, 15, 6, 4, 25, 46
